p cnf 42 1101
-1 -10 0
-1 -11 0
-1 -12 0
-1 -13 0
-1 -14 0
-1 -15 0
-1 -18 0
-1 -2 0
-1 -20 0
-1 -23 0
-1 -26 0
-1 -27 0
-1 -29 0
-1 -3 0
-1 -32 0
-1 -34 0
-1 -37 0
-1 -4 0
-1 -40 0
-1 -41 0
-1 -5 0
-1 -6 0
-1 -7 0
-1 -8 0
-1 -9 0
-10 -1 0
-10 -11 0
-10 -12 0
-10 -13 0
-10 -14 0
-10 -16 0
-10 -19 0
-10 -2 0
-10 -20 0
-10 -21 0
-10 -22 0
-10 -24 0
-10 -25 0
-10 -3 0
-10 -30 0
-10 -33 0
-10 -34 0
-10 -35 0
-10 -36 0
-10 -38 0
-10 -39 0
-10 -4 0
-10 -5 0
-10 -6 0
-10 -7 0
-10 -8 0
-10 -9 0
-11 -1 0
-11 -10 0
-11 -12 0
-11 -13 0
-11 -14 0
-11 -18 0
-11 -2 0
-11 -21 0
-11 -23 0
-11 -24 0
-11 -25 0
-11 -26 0
-11 -28 0
-11 -3 0
-11 -32 0
-11 -35 0
-11 -37 0
-11 -38 0
-11 -39 0
-11 -4 0
-11 -40 0
-11 -42 0
-11 -5 0
-11 -6 0
-11 -7 0
-11 -8 0
-11 -9 0
-12 -1 0
-12 -10 0
-12 -11 0
-12 -13 0
-12 -14 0
-12 -15 0
-12 -16 0
-12 -17 0
-12 -2 0
-12 -20 0
-12 -25 0
-12 -26 0
-12 -29 0
-12 -3 0
-12 -30 0
-12 -31 0
-12 -34 0
-12 -39 0
-12 -4 0
-12 -40 0
-12 -5 0
-12 -6 0
-12 -7 0
-12 -8 0
-12 -9 0
-13 -1 0
-13 -10 0
-13 -11 0
-13 -12 0
-13 -14 0
-13 -15 0
-13 -16 0
-13 -17 0
-13 -19 0
-13 -2 0
-13 -21 0
-13 -22 0
-13 -23 0
-13 -27 0
-13 -28 0
-13 -29 0
-13 -3 0
-13 -30 0
-13 -31 0
-13 -33 0
-13 -35 0
-13 -36 0
-13 -37 0
-13 -4 0
-13 -41 0
-13 -42 0
-13 -5 0
-13 -6 0
-13 -7 0
-13 -8 0
-13 -9 0
-14 -1 0
-14 -10 0
-14 -11 0
-14 -12 0
-14 -13 0
-14 -18 0
-14 -2 0
-14 -22 0
-14 -25 0
-14 -27 0
-14 -28 0
-14 -3 0
-14 -32 0
-14 -36 0
-14 -39 0
-14 -4 0
-14 -41 0
-14 -42 0
-14 -5 0
-14 -6 0
-14 -7 0
-14 -8 0
-14 -9 0
-15 -1 0
-15 -12 0
-15 -13 0
-15 -16 0
-15 -17 0
-15 -18 0
-15 -19 0
-15 -20 0
-15 -21 0
-15 -22 0
-15 -23 0
-15 -24 0
-15 -25 0
-15 -26 0
-15 -27 0
-15 -28 0
-15 -29 0
-15 -32 0
-15 -34 0
-15 -37 0
-15 -4 0
-15 -40 0
-15 -41 0
-15 -6 0
-15 -9 0
-16 -10 0
-16 -12 0
-16 -13 0
-16 -15 0
-16 -17 0
-16 -18 0
-16 -19 0
-16 -2 0
-16 -20 0
-16 -21 0
-16 -22 0
-16 -23 0
-16 -24 0
-16 -25 0
-16 -26 0
-16 -27 0
-16 -28 0
-16 -30 0
-16 -35 0
-16 -38 0
-16 -40 0
-16 -41 0
-16 -7 0
-17 -12 0
-17 -13 0
-17 -15 0
-17 -16 0
-17 -18 0
-17 -19 0
-17 -20 0
-17 -21 0
-17 -22 0
-17 -23 0
-17 -24 0
-17 -25 0
-17 -26 0
-17 -27 0
-17 -28 0
-17 -3 0
-17 -31 0
-17 -34 0
-17 -35 0
-17 -36 0
-17 -40 0
-17 -41 0
-17 -6 0
-17 -7 0
-17 -8 0
-18 -1 0
-18 -11 0
-18 -14 0
-18 -15 0
-18 -16 0
-18 -17 0
-18 -19 0
-18 -20 0
-18 -21 0
-18 -22 0
-18 -23 0
-18 -24 0
-18 -25 0
-18 -26 0
-18 -27 0
-18 -28 0
-18 -29 0
-18 -32 0
-18 -33 0
-18 -39 0
-18 -4 0
-18 -42 0
-18 -5 0
-19 -10 0
-19 -13 0
-19 -15 0
-19 -16 0
-19 -17 0
-19 -18 0
-19 -20 0
-19 -21 0
-19 -22 0
-19 -23 0
-19 -24 0
-19 -25 0
-19 -26 0
-19 -27 0
-19 -28 0
-19 -32 0
-19 -33 0
-19 -35 0
-19 -38 0
-19 -4 0
-19 -41 0
-19 -5 0
-19 -7 0
-2 -1 0
-2 -10 0
-2 -11 0
-2 -12 0
-2 -13 0
-2 -14 0
-2 -16 0
-2 -21 0
-2 -24 0
-2 -26 0
-2 -27 0
-2 -3 0
-2 -30 0
-2 -35 0
-2 -38 0
-2 -4 0
-2 -40 0
-2 -41 0
-2 -5 0
-2 -6 0
-2 -7 0
-2 -8 0
-2 -9 0
-20 -1 0
-20 -10 0
-20 -12 0
-20 -15 0
-20 -16 0
-20 -17 0
-20 -18 0
-20 -19 0
-20 -21 0
-20 -22 0
-20 -23 0
-20 -24 0
-20 -25 0
-20 -26 0
-20 -27 0
-20 -28 0
-20 -29 0
-20 -3 0
-20 -31 0
-20 -34 0
-20 -35 0
-20 -36 0
-20 -37 0
-20 -38 0
-20 -40 0
-20 -6 0
-20 -7 0
-20 -8 0
-20 -9 0
-21 -10 0
-21 -11 0
-21 -13 0
-21 -15 0
-21 -16 0
-21 -17 0
-21 -18 0
-21 -19 0
-21 -2 0
-21 -20 0
-21 -22 0
-21 -23 0
-21 -24 0
-21 -25 0
-21 -26 0
-21 -27 0
-21 -28 0
-21 -3 0
-21 -30 0
-21 -31 0
-21 -33 0
-21 -34 0
-21 -35 0
-21 -36 0
-21 -37 0
-21 -38 0
-21 -39 0
-21 -41 0
-21 -5 0
-21 -6 0
-21 -7 0
-21 -8 0
-21 -9 0
-22 -10 0
-22 -13 0
-22 -14 0
-22 -15 0
-22 -16 0
-22 -17 0
-22 -18 0
-22 -19 0
-22 -20 0
-22 -21 0
-22 -23 0
-22 -24 0
-22 -25 0
-22 -26 0
-22 -27 0
-22 -28 0
-22 -3 0
-22 -31 0
-22 -34 0
-22 -35 0
-22 -36 0
-22 -38 0
-22 -41 0
-22 -42 0
-22 -6 0
-22 -7 0
-22 -8 0
-23 -1 0
-23 -11 0
-23 -13 0
-23 -15 0
-23 -16 0
-23 -17 0
-23 -18 0
-23 -19 0
-23 -20 0
-23 -21 0
-23 -22 0
-23 -24 0
-23 -25 0
-23 -26 0
-23 -27 0
-23 -28 0
-23 -29 0
-23 -34 0
-23 -35 0
-23 -37 0
-23 -39 0
-23 -41 0
-23 -6 0
-23 -7 0
-23 -9 0
-24 -10 0
-24 -11 0
-24 -15 0
-24 -16 0
-24 -17 0
-24 -18 0
-24 -19 0
-24 -2 0
-24 -20 0
-24 -21 0
-24 -22 0
-24 -23 0
-24 -25 0
-24 -26 0
-24 -27 0
-24 -28 0
-24 -30 0
-24 -33 0
-24 -34 0
-24 -35 0
-24 -36 0
-24 -38 0
-24 -39 0
-24 -5 0
-24 -6 0
-24 -7 0
-24 -8 0
-25 -10 0
-25 -11 0
-25 -12 0
-25 -14 0
-25 -15 0
-25 -16 0
-25 -17 0
-25 -18 0
-25 -19 0
-25 -20 0
-25 -21 0
-25 -22 0
-25 -23 0
-25 -24 0
-25 -26 0
-25 -27 0
-25 -28 0
-25 -32 0
-25 -35 0
-25 -37 0
-25 -38 0
-25 -39 0
-25 -4 0
-25 -40 0
-25 -42 0
-25 -7 0
-25 -9 0
-26 -1 0
-26 -11 0
-26 -12 0
-26 -15 0
-26 -16 0
-26 -17 0
-26 -18 0
-26 -19 0
-26 -2 0
-26 -20 0
-26 -21 0
-26 -22 0
-26 -23 0
-26 -24 0
-26 -25 0
-26 -27 0
-26 -28 0
-26 -29 0
-26 -3 0
-26 -30 0
-26 -31 0
-26 -34 0
-26 -39 0
-26 -40 0
-26 -6 0
-27 -1 0
-27 -13 0
-27 -14 0
-27 -15 0
-27 -16 0
-27 -17 0
-27 -18 0
-27 -19 0
-27 -2 0
-27 -20 0
-27 -21 0
-27 -22 0
-27 -23 0
-27 -24 0
-27 -25 0
-27 -26 0
-27 -28 0
-27 -29 0
-27 -3 0
-27 -30 0
-27 -31 0
-27 -33 0
-27 -35 0
-27 -36 0
-27 -37 0
-27 -41 0
-27 -42 0
-27 -5 0
-27 -7 0
-27 -8 0
-27 -9 0
-28 -11 0
-28 -13 0
-28 -14 0
-28 -15 0
-28 -16 0
-28 -17 0
-28 -18 0
-28 -19 0
-28 -20 0
-28 -21 0
-28 -22 0
-28 -23 0
-28 -24 0
-28 -25 0
-28 -26 0
-28 -27 0
-28 -32 0
-28 -36 0
-28 -39 0
-28 -4 0
-28 -41 0
-28 -42 0
-28 -8 0
-29 -1 0
-29 -12 0
-29 -13 0
-29 -15 0
-29 -18 0
-29 -20 0
-29 -23 0
-29 -26 0
-29 -27 0
-29 -30 0
-29 -31 0
-29 -32 0
-29 -33 0
-29 -34 0
-29 -35 0
-29 -36 0
-29 -37 0
-29 -38 0
-29 -39 0
-29 -4 0
-29 -40 0
-29 -41 0
-29 -42 0
-29 -6 0
-29 -9 0
-3 -1 0
-3 -10 0
-3 -11 0
-3 -12 0
-3 -13 0
-3 -14 0
-3 -17 0
-3 -2 0
-3 -20 0
-3 -21 0
-3 -22 0
-3 -26 0
-3 -27 0
-3 -31 0
-3 -34 0
-3 -35 0
-3 -36 0
-3 -4 0
-3 -40 0
-3 -41 0
-3 -5 0
-3 -6 0
-3 -7 0
-3 -8 0
-3 -9 0
-30 -10 0
-30 -12 0
-30 -13 0
-30 -16 0
-30 -2 0
-30 -21 0
-30 -24 0
-30 -26 0
-30 -27 0
-30 -29 0
-30 -31 0
-30 -32 0
-30 -33 0
-30 -34 0
-30 -35 0
-30 -36 0
-30 -37 0
-30 -38 0
-30 -39 0
-30 -40 0
-30 -41 0
-30 -42 0
-30 -7 0
-31 -12 0
-31 -13 0
-31 -17 0
-31 -20 0
-31 -21 0
-31 -22 0
-31 -26 0
-31 -27 0
-31 -29 0
-31 -3 0
-31 -30 0
-31 -32 0
-31 -33 0
-31 -34 0
-31 -35 0
-31 -36 0
-31 -37 0
-31 -38 0
-31 -39 0
-31 -40 0
-31 -41 0
-31 -42 0
-31 -6 0
-31 -7 0
-31 -8 0
-32 -1 0
-32 -11 0
-32 -14 0
-32 -15 0
-32 -18 0
-32 -19 0
-32 -25 0
-32 -28 0
-32 -29 0
-32 -30 0
-32 -31 0
-32 -33 0
-32 -34 0
-32 -35 0
-32 -36 0
-32 -37 0
-32 -38 0
-32 -39 0
-32 -4 0
-32 -40 0
-32 -41 0
-32 -42 0
-32 -5 0
-33 -10 0
-33 -13 0
-33 -18 0
-33 -19 0
-33 -21 0
-33 -24 0
-33 -27 0
-33 -29 0
-33 -30 0
-33 -31 0
-33 -32 0
-33 -34 0
-33 -35 0
-33 -36 0
-33 -37 0
-33 -38 0
-33 -39 0
-33 -4 0
-33 -40 0
-33 -41 0
-33 -42 0
-33 -5 0
-33 -7 0
-34 -1 0
-34 -10 0
-34 -12 0
-34 -15 0
-34 -17 0
-34 -20 0
-34 -21 0
-34 -22 0
-34 -23 0
-34 -24 0
-34 -26 0
-34 -29 0
-34 -3 0
-34 -30 0
-34 -31 0
-34 -32 0
-34 -33 0
-34 -35 0
-34 -36 0
-34 -37 0
-34 -38 0
-34 -39 0
-34 -40 0
-34 -41 0
-34 -42 0
-34 -6 0
-34 -7 0
-34 -8 0
-34 -9 0
-35 -10 0
-35 -11 0
-35 -13 0
-35 -16 0
-35 -17 0
-35 -19 0
-35 -2 0
-35 -20 0
-35 -21 0
-35 -22 0
-35 -23 0
-35 -24 0
-35 -25 0
-35 -27 0
-35 -29 0
-35 -3 0
-35 -30 0
-35 -31 0
-35 -32 0
-35 -33 0
-35 -34 0
-35 -36 0
-35 -37 0
-35 -38 0
-35 -39 0
-35 -40 0
-35 -41 0
-35 -42 0
-35 -5 0
-35 -6 0
-35 -7 0
-35 -8 0
-35 -9 0
-36 -10 0
-36 -13 0
-36 -14 0
-36 -17 0
-36 -20 0
-36 -21 0
-36 -22 0
-36 -24 0
-36 -27 0
-36 -28 0
-36 -29 0
-36 -3 0
-36 -30 0
-36 -31 0
-36 -32 0
-36 -33 0
-36 -34 0
-36 -35 0
-36 -37 0
-36 -38 0
-36 -39 0
-36 -40 0
-36 -41 0
-36 -42 0
-36 -6 0
-36 -7 0
-36 -8 0
-37 -1 0
-37 -11 0
-37 -13 0
-37 -15 0
-37 -20 0
-37 -21 0
-37 -23 0
-37 -25 0
-37 -27 0
-37 -29 0
-37 -30 0
-37 -31 0
-37 -32 0
-37 -33 0
-37 -34 0
-37 -35 0
-37 -36 0
-37 -38 0
-37 -39 0
-37 -40 0
-37 -41 0
-37 -42 0
-37 -6 0
-37 -7 0
-37 -9 0
-38 -10 0
-38 -11 0
-38 -16 0
-38 -19 0
-38 -2 0
-38 -20 0
-38 -21 0
-38 -22 0
-38 -24 0
-38 -25 0
-38 -29 0
-38 -30 0
-38 -31 0
-38 -32 0
-38 -33 0
-38 -34 0
-38 -35 0
-38 -36 0
-38 -37 0
-38 -39 0
-38 -40 0
-38 -41 0
-38 -42 0
-38 -5 0
-38 -6 0
-38 -7 0
-38 -8 0
-39 -10 0
-39 -11 0
-39 -12 0
-39 -14 0
-39 -18 0
-39 -21 0
-39 -23 0
-39 -24 0
-39 -25 0
-39 -26 0
-39 -28 0
-39 -29 0
-39 -30 0
-39 -31 0
-39 -32 0
-39 -33 0
-39 -34 0
-39 -35 0
-39 -36 0
-39 -37 0
-39 -38 0
-39 -4 0
-39 -40 0
-39 -41 0
-39 -42 0
-39 -7 0
-39 -9 0
-4 -1 0
-4 -10 0
-4 -11 0
-4 -12 0
-4 -13 0
-4 -14 0
-4 -15 0
-4 -18 0
-4 -19 0
-4 -2 0
-4 -25 0
-4 -28 0
-4 -29 0
-4 -3 0
-4 -32 0
-4 -33 0
-4 -39 0
-4 -42 0
-4 -5 0
-4 -6 0
-4 -7 0
-4 -8 0
-4 -9 0
-40 -1 0
-40 -11 0
-40 -12 0
-40 -15 0
-40 -16 0
-40 -17 0
-40 -2 0
-40 -20 0
-40 -25 0
-40 -26 0
-40 -29 0
-40 -3 0
-40 -30 0
-40 -31 0
-40 -32 0
-40 -33 0
-40 -34 0
-40 -35 0
-40 -36 0
-40 -37 0
-40 -38 0
-40 -39 0
-40 -41 0
-40 -42 0
-40 -6 0
-41 -1 0
-41 -13 0
-41 -14 0
-41 -15 0
-41 -16 0
-41 -17 0
-41 -19 0
-41 -2 0
-41 -21 0
-41 -22 0
-41 -23 0
-41 -27 0
-41 -28 0
-41 -29 0
-41 -3 0
-41 -30 0
-41 -31 0
-41 -32 0
-41 -33 0
-41 -34 0
-41 -35 0
-41 -36 0
-41 -37 0
-41 -38 0
-41 -39 0
-41 -40 0
-41 -42 0
-41 -5 0
-41 -7 0
-41 -8 0
-41 -9 0
-42 -11 0
-42 -13 0
-42 -14 0
-42 -18 0
-42 -22 0
-42 -25 0
-42 -27 0
-42 -28 0
-42 -29 0
-42 -30 0
-42 -31 0
-42 -32 0
-42 -33 0
-42 -34 0
-42 -35 0
-42 -36 0
-42 -37 0
-42 -38 0
-42 -39 0
-42 -4 0
-42 -40 0
-42 -41 0
-42 -8 0
-5 -1 0
-5 -10 0
-5 -11 0
-5 -12 0
-5 -13 0
-5 -14 0
-5 -18 0
-5 -19 0
-5 -2 0
-5 -21 0
-5 -24 0
-5 -27 0
-5 -3 0
-5 -32 0
-5 -33 0
-5 -35 0
-5 -38 0
-5 -4 0
-5 -41 0
-5 -6 0
-5 -7 0
-5 -8 0
-5 -9 0
-6 -1 0
-6 -10 0
-6 -11 0
-6 -12 0
-6 -13 0
-6 -14 0
-6 -15 0
-6 -17 0
-6 -2 0
-6 -20 0
-6 -21 0
-6 -22 0
-6 -23 0
-6 -24 0
-6 -26 0
-6 -29 0
-6 -3 0
-6 -31 0
-6 -34 0
-6 -35 0
-6 -36 0
-6 -37 0
-6 -38 0
-6 -4 0
-6 -40 0
-6 -5 0
-6 -7 0
-6 -8 0
-6 -9 0
-7 -1 0
-7 -10 0
-7 -11 0
-7 -12 0
-7 -13 0
-7 -14 0
-7 -16 0
-7 -17 0
-7 -19 0
-7 -2 0
-7 -20 0
-7 -21 0
-7 -22 0
-7 -23 0
-7 -24 0
-7 -25 0
-7 -27 0
-7 -3 0
-7 -30 0
-7 -31 0
-7 -33 0
-7 -34 0
-7 -35 0
-7 -36 0
-7 -37 0
-7 -38 0
-7 -39 0
-7 -4 0
-7 -41 0
-7 -5 0
-7 -6 0
-7 -8 0
-7 -9 0
-8 -1 0
-8 -10 0
-8 -11 0
-8 -12 0
-8 -13 0
-8 -14 0
-8 -17 0
-8 -2 0
-8 -20 0
-8 -21 0
-8 -22 0
-8 -24 0
-8 -27 0
-8 -28 0
-8 -3 0
-8 -31 0
-8 -34 0
-8 -35 0
-8 -36 0
-8 -38 0
-8 -4 0
-8 -41 0
-8 -42 0
-8 -5 0
-8 -6 0
-8 -7 0
-8 -9 0
-9 -1 0
-9 -10 0
-9 -11 0
-9 -12 0
-9 -13 0
-9 -14 0
-9 -15 0
-9 -2 0
-9 -20 0
-9 -21 0
-9 -23 0
-9 -25 0
-9 -27 0
-9 -29 0
-9 -3 0
-9 -34 0
-9 -35 0
-9 -37 0
-9 -39 0
-9 -4 0
-9 -41 0
-9 -5 0
-9 -6 0
-9 -7 0
-9 -8 0
1 2 3 4 5 6 7 8 9 10 11 12 13 14 0
15 16 17 18 19 20 21 22 23 24 25 26 27 28 0
29 30 31 32 33 34 35 36 37 38 39 40 41 42 0
